nohup: ignoring input
2024-07-31 10:02:54.827106: I external/local_xla/xla/tsl/cuda/cudart_stub.cc:32] Could not find cuda drivers on your machine, GPU will not be used.
2024-07-31 10:02:54.829769: I external/local_xla/xla/tsl/cuda/cudart_stub.cc:32] Could not find cuda drivers on your machine, GPU will not be used.
2024-07-31 10:02:54.837647: E external/local_xla/xla/stream_executor/cuda/cuda_fft.cc:485] Unable to register cuFFT factory: Attempting to register factory for plugin cuFFT when one has already been registered
2024-07-31 10:02:54.850369: E external/local_xla/xla/stream_executor/cuda/cuda_dnn.cc:8454] Unable to register cuDNN factory: Attempting to register factory for plugin cuDNN when one has already been registered
2024-07-31 10:02:54.854167: E external/local_xla/xla/stream_executor/cuda/cuda_blas.cc:1452] Unable to register cuBLAS factory: Attempting to register factory for plugin cuBLAS when one has already been registered
2024-07-31 10:02:54.865089: I tensorflow/core/platform/cpu_feature_guard.cc:210] This TensorFlow binary is optimized to use available CPU instructions in performance-critical operations.
To enable the following instructions: AVX2 FMA, in other operations, rebuild TensorFlow with the appropriate compiler flags.
2024-07-31 10:02:59.766241: W tensorflow/compiler/tf2tensorrt/utils/py_utils.cc:38] TF-TRT Warning: Could not find TensorRT
424
no warm start
Set parameter TokenServer to value "vm-gurobi-license.doc.ic.ac.uk"
Gurobi Optimizer version 11.0.2 build v11.0.2rc0 (linux64 - "Ubuntu 22.04.4 LTS")

CPU model: Intel(R) Core(TM) i7-8700 CPU @ 3.20GHz, instruction set [SSE2|AVX|AVX2]
Thread count: 6 physical cores, 12 logical processors, using up to 12 threads

Optimize a model with 2920 rows, 26820 columns and 58948 nonzeros
Model fingerprint: 0x6fc244e9
Model has 100 quadratic constraints
Variable types: 26290 continuous, 530 integer (530 binary)
Coefficient statistics:
  Matrix range     [4e-03, 3e+04]
  QMatrix range    [1e+00, 1e+00]
  QLMatrix range   [1e+00, 1e+00]
  Objective range  [1e+00, 1e+00]
  Bounds range     [1e+00, 1e+00]
  RHS range        [1e+00, 3e+04]
Presolve removed 430 rows and 14922 columns
Presolve time: 0.09s
Presolved: 15390 rows, 15098 columns, 98356 nonzeros
Presolved model has 3200 bilinear constraint(s)

Solving non-convex MIQCP

Variable types: 14578 continuous, 520 integer (520 binary)
Found heuristic solution: objective -1.0000000

Root relaxation: objective -1.000000e+01, 4129 iterations, 0.05 seconds (0.05 work units)

    Nodes    |    Current Node    |     Objective Bounds      |     Work
 Expl Unexpl |  Obj  Depth IntInf | Incumbent    BestBd   Gap | It/Node Time

     0     0  -10.00000    0  118   -1.00000  -10.00000   900%     -    0s
H    0     0                      -2.0000000  -10.00000   400%     -    0s
     0     0  -10.00000    0  118   -2.00000  -10.00000   400%     -    0s
H    0     0                     -10.0000000  -10.00000  0.00%     -    0s
     0     0  -10.00000    0  118  -10.00000  -10.00000  0.00%     -    0s

Explored 1 nodes (7811 simplex iterations) in 0.80 seconds (0.87 work units)
Thread count was 12 (of 12 available processors)

Solution count 3: -10 -2 -1 
No other solutions better than -10

Optimal solution found (tolerance 1.00e-04)
Best objective -1.000000000000e+01, best bound -1.000000000000e+01, gap 0.0000%
mnist - Training average accuracy over 1 experiments with 10 training points using max_correct: 1.0
mnist - testing average accuracy over 1 experiments with 10 training points using max_correct: 0.1302
no warm start
Gurobi Optimizer version 11.0.2 build v11.0.2rc0 (linux64 - "Ubuntu 22.04.4 LTS")

CPU model: Intel(R) Core(TM) i7-8700 CPU @ 3.20GHz, instruction set [SSE2|AVX|AVX2]
Thread count: 6 physical cores, 12 logical processors, using up to 12 threads

Optimize a model with 2100 rows, 26810 columns and 56228 nonzeros
Model fingerprint: 0x616b2443
Model has 200 quadratic constraints
Variable types: 26390 continuous, 420 integer (420 binary)
Coefficient statistics:
  Matrix range     [4e-03, 3e+04]
  QMatrix range    [1e+00, 1e+00]
  QLMatrix range   [1e+00, 2e+00]
  Objective range  [1e+00, 1e+00]
  Bounds range     [1e+00, 1e+00]
  RHS range        [8e+02, 3e+04]
  QRHS range       [1e+00, 1e+00]
Presolve removed 520 rows and 14912 columns
Presolve time: 0.05s
Presolved: 14580 rows, 15198 columns, 88656 nonzeros
Presolved model has 100 quadratic constraint(s)
Presolved model has 3200 bilinear constraint(s)

Solving non-convex MIQCP

Variable types: 14778 continuous, 420 integer (420 binary)
Found heuristic solution: objective 100.0000000

Root relaxation: objective 9.000000e+01, 4151 iterations, 0.04 seconds (0.05 work units)

    Nodes    |    Current Node    |     Objective Bounds      |     Work
 Expl Unexpl |  Obj  Depth IntInf | Incumbent    BestBd   Gap | It/Node Time

     0     0   90.00000    0   52  100.00000   90.00000  10.0%     -    0s
     0     0   90.00000    0   53  100.00000   90.00000  10.0%     -    0s
H    0     0                      94.2816150   90.00000  4.54%     -    0s
     0     0   90.00000    0   53   94.28162   90.00000  4.54%     -    0s
H    0     0                      93.8763745   90.00000  4.13%     -    0s
     0     0   90.00000    0   53   93.87637   90.00000  4.13%     -    0s
     0     0   90.00000    0   54   93.87637   90.00000  4.13%     -    0s
     0     0   90.00000    0   54   93.87637   90.00000  4.13%     -    0s
H    0     0                      92.4060458   90.00000  2.60%     -    0s
     0     0   90.00000    0   54   92.40605   90.00000  2.60%     -    0s
     0     0   90.00000    0   54   92.40605   90.00000  2.60%     -    0s
H    0     0                      90.5182585   90.00000  0.57%     -    1s
     0     2   90.00000    0   53   90.51826   90.00000  0.57%     -    1s
H  282   504                      90.0142109   90.00000  0.02%  34.3    4s
H  316   504                      90.0000000   90.00000  0.00%  31.5    4s

Explored 503 nodes (19468 simplex iterations) in 4.11 seconds (4.13 work units)
Thread count was 12 (of 12 available processors)

Solution count 7: 90 90.0142 90.5183 ... 100

Optimal solution found (tolerance 1.00e-04)
Best objective 9.000000000000e+01, best bound 9.000000000000e+01, gap 0.0000%
mnist - Training average accuracy over 1 experiments with 10 training points using hinge: 1.0
mnist - testing average accuracy over 1 experiments with 10 training points using hinge: 0.1405
no warm start
Gurobi Optimizer version 11.0.2 build v11.0.2rc0 (linux64 - "Ubuntu 22.04.4 LTS")

CPU model: Intel(R) Core(TM) i7-8700 CPU @ 3.20GHz, instruction set [SSE2|AVX|AVX2]
Thread count: 6 physical cores, 12 logical processors, using up to 12 threads

Optimize a model with 2200 rows, 26810 columns and 56528 nonzeros
Model fingerprint: 0x3cc73d86
Model has 100 quadratic constraints
Variable types: 26290 continuous, 520 integer (520 binary)
Coefficient statistics:
  Matrix range     [4e-03, 3e+04]
  QMatrix range    [1e+00, 1e+00]
  QLMatrix range   [1e+00, 1e+00]
  Objective range  [1e+00, 1e+00]
  Bounds range     [1e+00, 1e+00]
  RHS range        [3e+02, 3e+04]
Presolve removed 610 rows and 15002 columns
Presolve time: 0.05s
Presolved: 14490 rows, 15008 columns, 88376 nonzeros
Presolved model has 3200 bilinear constraint(s)

Solving non-convex MIQCP

Variable types: 14578 continuous, 430 integer (430 binary)
Found heuristic solution: objective 100.0000000

Root relaxation: objective 9.000000e+01, 4599 iterations, 0.07 seconds (0.11 work units)

    Nodes    |    Current Node    |     Objective Bounds      |     Work
 Expl Unexpl |  Obj  Depth IntInf | Incumbent    BestBd   Gap | It/Node Time

     0     0   90.00000    0  369  100.00000   90.00000  10.0%     -    0s
H    0     0                      99.0000000   90.00000  9.09%     -    0s
     0     0   90.00000    0  369   99.00000   90.00000  9.09%     -    0s
H    0     0                      97.0000000   90.00000  7.22%     -    2s
H    0     0                      93.0000000   90.00000  3.23%     -    2s
     0     2   90.00000    0  369   93.00000   90.00000  3.23%     -    2s
H   35    38                      92.0000000   90.00000  2.17%   101    2s
H   63    54                      91.0000000   90.00000  1.10%   157    2s
H   69    29                      90.0000000   90.00000  0.00%   147    3s

Explored 70 nodes (22059 simplex iterations) in 3.59 seconds (5.09 work units)
Thread count was 12 (of 12 available processors)

Solution count 7: 90 91 92 ... 100

Optimal solution found (tolerance 1.00e-04)
Best objective 9.000000000000e+01, best bound 9.000000000000e+01, gap 0.0000%
mnist - Training average accuracy over 1 experiments with 10 training points using sat_margin: 1.0
mnist - testing average accuracy over 1 experiments with 10 training points using sat_margin: 0.3323
no warm start
Gurobi Optimizer version 11.0.2 build v11.0.2rc0 (linux64 - "Ubuntu 22.04.4 LTS")

CPU model: Intel(R) Core(TM) i7-8700 CPU @ 3.20GHz, instruction set [SSE2|AVX|AVX2]
Thread count: 6 physical cores, 12 logical processors, using up to 12 threads

Optimize a model with 5840 rows, 28190 columns and 112808 nonzeros
Model fingerprint: 0x0665677c
Model has 200 quadratic constraints
Variable types: 27130 continuous, 1060 integer (1060 binary)
Coefficient statistics:
  Matrix range     [4e-03, 3e+04]
  QMatrix range    [1e+00, 1e+00]
  QLMatrix range   [1e+00, 1e+00]
  Objective range  [1e+00, 1e+00]
  Bounds range     [1e+00, 1e+00]
  RHS range        [1e+00, 3e+04]
Presolve removed 860 rows and 13396 columns
Presolve time: 0.16s
Presolved: 30780 rows, 21194 columns, 195272 nonzeros
Presolved model has 6400 bilinear constraint(s)

Solving non-convex MIQCP

Variable types: 20154 continuous, 1040 integer (1040 binary)
Found heuristic solution: objective -2.0000000
Deterministic concurrent LP optimizer: primal and dual simplex
Showing primal log only...

Concurrent spin time: 0.00s

Solved with dual simplex

Use crossover to convert LP symmetric solution to basic solution...

Root relaxation: objective -2.000000e+01, 6863 iterations, 0.10 seconds (0.15 work units)

    Nodes    |    Current Node    |     Objective Bounds      |     Work
 Expl Unexpl |  Obj  Depth IntInf | Incumbent    BestBd   Gap | It/Node Time

     0     0  -20.00000    0   20   -2.00000  -20.00000   900%     -    0s
     0     0  -20.00000    0  109   -2.00000  -20.00000   900%     -    1s
H    0     0                      -3.0000000  -20.00000   567%     -    1s
H    0     0                      -4.0000000  -20.00000   400%     -   21s
H    0     0                      -5.0000000  -20.00000   300%     -   21s
H    0     0                      -6.0000000  -20.00000   233%     -   21s
H    0     0                      -7.0000000  -20.00000   186%     -   21s
H    0     0                      -8.0000000  -20.00000   150%     -   21s
H    0     0                      -9.0000000  -20.00000   122%     -   21s
     0     0  -20.00000    0  137   -9.00000  -20.00000   122%     -   21s
H    0     0                     -10.0000000  -20.00000   100%     -   21s
     0     0  -20.00000    0  175  -10.00000  -20.00000   100%     -   22s
H    0     0                     -11.0000000  -20.00000  81.8%     -   24s
     0     0  -20.00000    0  134  -11.00000  -20.00000  81.8%     -   24s
     0     0  -20.00000    0  134  -11.00000  -20.00000  81.8%     -   24s
H    0     0                     -12.0000000  -20.00000  66.7%     -   25s
H    0     0                     -20.0000000  -20.00000  0.00%     -   26s
     0     0  -20.00000    0  134  -20.00000  -20.00000  0.00%     -   26s

Cutting planes:
  Cover: 20
  MIR: 27
  Flow cover: 4
  RLT: 1

Explored 1 nodes (51127 simplex iterations) in 26.94 seconds (26.08 work units)
Thread count was 12 (of 12 available processors)

Solution count 10: -20 -12 -11 ... -4
No other solutions better than -20

Optimal solution found (tolerance 1.00e-04)
Best objective -2.000000000000e+01, best bound -2.000000000000e+01, gap 0.0000%
mnist - Training average accuracy over 1 experiments with 20 training points using max_correct: 1.0
mnist - testing average accuracy over 1 experiments with 20 training points using max_correct: 0.1923
no warm start
Gurobi Optimizer version 11.0.2 build v11.0.2rc0 (linux64 - "Ubuntu 22.04.4 LTS")

CPU model: Intel(R) Core(TM) i7-8700 CPU @ 3.20GHz, instruction set [SSE2|AVX|AVX2]
Thread count: 6 physical cores, 12 logical processors, using up to 12 threads

Optimize a model with 4200 rows, 28170 columns and 107368 nonzeros
Model fingerprint: 0xcd6c03df
Model has 400 quadratic constraints
Variable types: 27330 continuous, 840 integer (840 binary)
Coefficient statistics:
  Matrix range     [4e-03, 3e+04]
  QMatrix range    [1e+00, 1e+00]
  QLMatrix range   [1e+00, 2e+00]
  Objective range  [1e+00, 1e+00]
  Bounds range     [1e+00, 1e+00]
  RHS range        [8e+02, 3e+04]
  QRHS range       [1e+00, 1e+00]
Presolve removed 1040 rows and 13376 columns
Presolve time: 0.10s
Presolved: 29160 rows, 21394 columns, 175872 nonzeros
Presolved model has 200 quadratic constraint(s)
Presolved model has 6400 bilinear constraint(s)

Solving non-convex MIQCP

Variable types: 20554 continuous, 840 integer (840 binary)
Found heuristic solution: objective 200.0000000
Deterministic concurrent LP optimizer: primal and dual simplex
Showing primal log only...

Concurrent spin time: 0.00s

Solved with primal simplex

Use crossover to convert LP symmetric solution to basic solution...

Root relaxation: objective 1.800000e+02, 1038 iterations, 0.09 seconds (0.13 work units)

    Nodes    |    Current Node    |     Objective Bounds      |     Work
 Expl Unexpl |  Obj  Depth IntInf | Incumbent    BestBd   Gap | It/Node Time

     0     0  180.00000    0   20  200.00000  180.00000  10.0%     -    0s
H    0     0                     199.0000001  180.00000  9.55%     -   22s
H    0     0                     194.0000000  180.00000  7.22%     -   22s
H    0     0                     193.3628451  180.00000  6.91%     -   22s
H    0     0                     193.0000000  180.00000  6.74%     -   22s
H    0     0                     192.0000000  180.00000  6.25%     -   22s
H    0     0                     191.0000001  180.00000  5.76%     -   22s
H    0     0                     191.0000000  180.00000  5.76%     -   22s
H    0     0                     190.0000001  180.00000  5.26%     -   22s
H    0     0                     187.7848717  180.00000  4.15%     -   22s
     0     0  180.00000    0 4356  187.78487  180.00000  4.15%     -   22s
H    0     0                     187.7349440  180.00000  4.12%     -   23s
H    0     0                     187.7349439  180.00000  4.12%     -   25s
H    0     0                     185.8353647  180.00000  3.14%     -   25s
     0     0  180.00000    0 4230  185.83536  180.00000  3.14%     -   25s
     0     0  180.00000    0 4230  185.83536  180.00000  3.14%     -   25s
     0     0  180.00000    0 4230  185.83536  180.00000  3.14%     -   26s
     0     0  180.00000    0 4230  185.83536  180.00000  3.14%     -   26s
     0     0  180.00000    0 4230  185.83536  180.00000  3.14%     -   26s
     0     0  180.00000    0 4230  185.83536  180.00000  3.14%     -   26s
     0     0  180.00000    0 4230  185.83536  180.00000  3.14%     -   26s
     0     2  180.00000    0 4230  185.83536  180.00000  3.14%     -   84s
    13    20  180.00000    4 4231  185.83536  180.00000  3.14%   123   85s
H  150   197                     185.1507057  180.00000  2.78%  89.8   87s
   363   551  180.00000   32 4230  185.15071  180.00000  2.78%   122   92s
H  393   551                     184.8271992  180.00000  2.61%   124   92s
H  550   736                     183.5958205  180.00000  1.96%   129   96s
H  583   736                     183.3452411  180.00000  1.82%   134   96s
H  707   736                     183.2693050  180.00000  1.78%   162   96s
   735   995  180.00000   61 4230  183.26930  180.00000  1.78%   165  100s
H  775   995                     180.2755177  180.00000  0.15%   170  100s
H  882   995                     180.2753906  180.00000  0.15%   169  100s
H  994   764                     180.0000000  180.00000  0.00%   179  106s

Cutting planes:
  Gomory: 39
  MIR: 2
  Flow cover: 20

Explored 1423 nodes (290323 simplex iterations) in 106.56 seconds (164.92 work units)
Thread count was 12 (of 12 available processors)

Solution count 10: 180 180.275 180.276 ... 187.735

Optimal solution found (tolerance 1.00e-04)
Best objective 1.800000000000e+02, best bound 1.800000000000e+02, gap 0.0000%
mnist - Training average accuracy over 1 experiments with 20 training points using hinge: 1.0
mnist - testing average accuracy over 1 experiments with 20 training points using hinge: 0.2583
no warm start
Gurobi Optimizer version 11.0.2 build v11.0.2rc0 (linux64 - "Ubuntu 22.04.4 LTS")

CPU model: Intel(R) Core(TM) i7-8700 CPU @ 3.20GHz, instruction set [SSE2|AVX|AVX2]
Thread count: 6 physical cores, 12 logical processors, using up to 12 threads

Optimize a model with 4400 rows, 28170 columns and 107968 nonzeros
Model fingerprint: 0xb4af70b4
Model has 200 quadratic constraints
Variable types: 27130 continuous, 1040 integer (1040 binary)
Coefficient statistics:
  Matrix range     [4e-03, 3e+04]
  QMatrix range    [1e+00, 1e+00]
  QLMatrix range   [1e+00, 1e+00]
  Objective range  [1e+00, 1e+00]
  Bounds range     [1e+00, 1e+00]
  RHS range        [3e+02, 3e+04]
Presolve removed 1220 rows and 13556 columns
Presolve time: 0.10s
Presolved: 28980 rows, 21014 columns, 175312 nonzeros
Presolved model has 6400 bilinear constraint(s)

Solving non-convex MIQCP

Variable types: 20154 continuous, 860 integer (860 binary)
Found heuristic solution: objective 200.0000000
Deterministic concurrent LP optimizer: primal and dual simplex
Showing primal log only...

Concurrent spin time: 0.00s

Solved with dual simplex

Use crossover to convert LP symmetric solution to basic solution...

Root relaxation: objective 1.800000e+02, 8200 iterations, 0.14 seconds (0.18 work units)

    Nodes    |    Current Node    |     Objective Bounds      |     Work
 Expl Unexpl |  Obj  Depth IntInf | Incumbent    BestBd   Gap | It/Node Time

     0     0  180.00000    0 5251  200.00000  180.00000  10.0%     -    7s
H    0     0                     199.0000000  180.00000  9.55%     -    8s
     0     0  180.00000    0 5209  199.00000  180.00000  9.55%     -   19s
     0     0  180.00000    0 5191  199.00000  180.00000  9.55%     -   20s
     0     0  180.00000    0 5007  199.00000  180.00000  9.55%     -   33s
     0     0  180.00000    0 4985  199.00000  180.00000  9.55%     -   35s
     0     0  180.00000    0 4932  199.00000  180.00000  9.55%     -   47s
     0     0  180.00000    0 4941  199.00000  180.00000  9.55%     -   48s
     0     0  180.00000    0 4899  199.00000  180.00000  9.55%     -   59s
     0     0  180.00000    0 4883  199.00000  180.00000  9.55%     -   60s
     0     0  180.00000    0 4868  199.00000  180.00000  9.55%     -   70s
     0     0  180.00000    0 4857  199.00000  180.00000  9.55%     -   71s
     0     0  180.00000    0 4829  199.00000  180.00000  9.55%     -   81s
     0     0  180.00000    0 4829  199.00000  180.00000  9.55%     -   82s
     0     0  180.00000    0 4770  199.00000  180.00000  9.55%     -   92s
     0     0  180.00000    0 4765  199.00000  180.00000  9.55%     -   92s
     0     0  180.00000    0 4739  199.00000  180.00000  9.55%     -  102s
     0     0  180.00000    0 4738  199.00000  180.00000  9.55%     -  103s
     0     0  180.00000    0 4705  199.00000  180.00000  9.55%     -  112s
     0     0  180.00000    0 4672  199.00000  180.00000  9.55%     -  122s
     0     0  180.00000    0 4671  199.00000  180.00000  9.55%     -  122s
     0     0  180.00000    0 4662  199.00000  180.00000  9.55%     -  131s
     0     0  180.00000    0 4662  199.00000  180.00000  9.55%     -  138s
H    0     0                     195.0000000  180.00000  7.69%     -  159s
     0     2  180.00000    0 4662  195.00000  180.00000  7.69%     -  172s
     1     4  180.00000    1 4661  195.00000  180.00000  7.69%  7020  175s
     7    14  180.00000    3 4659  195.00000  180.00000  7.69%  2301  180s
    13    20  180.00000    4 4610  195.00000  180.00000  7.69%  2234  185s
H   31    38                     194.0000000  180.00000  7.22%  1180  188s
    37    58  180.00000    7 4686  194.00000  180.00000  7.22%  1014  190s
    57   104  180.00000   10 4714  194.00000  180.00000  7.22%   736  195s
H   79   104                     193.0000000  180.00000  6.74%   600  195s
   103   268  180.00000   20 4718  193.00000  180.00000  6.74%   512  207s
H  233   268                     192.0000000  180.00000  6.25%   265  207s
   267   838  180.00000   70 4767  192.00000  180.00000  6.25%   242  369s
   837   934  180.00000  199 4645  192.00000  180.00000  6.25%   150  468s
   933  2419  180.00000  209 4630  192.00000  180.00000  6.25%   155  526s
  2418  2425  180.00000  429 4650  192.00000  180.00000  6.25%   183  607s
  2424  3006  180.00000  430 4629  192.00000  180.00000  6.25%   183  637s
  3005  3409  180.00000  508 4629  192.00000  180.00000  6.25%   205  666s
H 3200  3409                     191.0000000  180.00000  5.76%   219  666s
  3408  3594  180.00000  542 4579  191.00000  180.00000  5.76%   225  732s
  3593  3749  180.00000  546 4565  191.00000  180.00000  5.76%   268  805s
  3748  3894  180.00000  551 4580  191.00000  180.00000  5.76%   313  899s
  3893  4190  180.00000  589 4548  191.00000  180.00000  5.76%   363  968s
  4189  4357  180.00000  638 4578  191.00000  180.00000  5.76%   390 1069s
  4356  4542  180.00000  654 4559  191.00000  180.00000  5.76%   441 1158s
  4541  4772  180.00000  706 4539  191.00000  180.00000  5.76%   483 1238s
  4771  5011  180.00000  733 4531  191.00000  180.00000  5.76%   519 1313s
  5010  5157  180.00000  782 4480  191.00000  180.00000  5.76%   547 1425s
H 5147  5157                     190.0000000  180.00000  5.26%   580 1425s
  5156  5369  180.00000  800 4441  190.00000  180.00000  5.26%   587 1613s
  5368  5509  180.00000  811 4461  190.00000  180.00000  5.26%   623 1770s
H 5428   472                     180.0000000  180.00000  0.00%   642 1770s

Cutting planes:
  Learned: 20
  Gomory: 1
  MIR: 69
  Flow cover: 14
  RLT: 151

Explored 5508 nodes (3749789 simplex iterations) in 1770.90 seconds (2400.91 work units)
Thread count was 12 (of 12 available processors)

Solution count 9: 180 190 191 ... 200

Optimal solution found (tolerance 1.00e-04)
Best objective 1.800000000000e+02, best bound 1.800000000000e+02, gap 0.0000%
mnist - Training average accuracy over 1 experiments with 20 training points using sat_margin: 1.0
mnist - testing average accuracy over 1 experiments with 20 training points using sat_margin: 0.428
no warm start
Gurobi Optimizer version 11.0.2 build v11.0.2rc0 (linux64 - "Ubuntu 22.04.4 LTS")

CPU model: Intel(R) Core(TM) i7-8700 CPU @ 3.20GHz, instruction set [SSE2|AVX|AVX2]
Thread count: 6 physical cores, 12 logical processors, using up to 12 threads

Optimize a model with 8760 rows, 29560 columns and 169580 nonzeros
Model fingerprint: 0xc56e204a
Model has 300 quadratic constraints
Variable types: 27970 continuous, 1590 integer (1590 binary)
Coefficient statistics:
  Matrix range     [4e-03, 3e+04]
  QMatrix range    [1e+00, 1e+00]
  QLMatrix range   [1e+00, 1e+00]
  Objective range  [1e+00, 1e+00]
  Bounds range     [1e+00, 1e+00]
  RHS range        [1e+00, 3e+04]
Presolve removed 1290 rows and 12510 columns
Presolve time: 0.75s
Presolved: 46170 rows, 26650 columns, 293884 nonzeros
Presolved model has 9600 bilinear constraint(s)

Solving non-convex MIQCP

Variable types: 25090 continuous, 1560 integer (1560 binary)
Found heuristic solution: objective -3.0000000
Deterministic concurrent LP optimizer: primal and dual simplex
Showing primal log only...

Concurrent spin time: 0.00s

Solved with dual simplex

Use crossover to convert LP symmetric solution to basic solution...

Root relaxation: objective -3.000000e+01, 14324 iterations, 0.77 seconds (0.33 work units)
Total elapsed time = 13.93s (DegenMoves)

    Nodes    |    Current Node    |     Objective Bounds      |     Work
 Expl Unexpl |  Obj  Depth IntInf | Incumbent    BestBd   Gap | It/Node Time

     0     0  -30.00000    0 1152   -3.00000  -30.00000   900%     -   16s
     0     0  -30.00000    0 1152   -3.00000  -30.00000   900%     -   18s
H    0     0                     -30.0000000  -30.00000  0.00%     -   35s
     0     0  -30.00000    0 1152  -30.00000  -30.00000  0.00%     -   35s

Explored 1 nodes (34887 simplex iterations) in 35.52 seconds (23.63 work units)
Thread count was 12 (of 12 available processors)

Solution count 2: -30 -3 
No other solutions better than -30

Optimal solution found (tolerance 1.00e-04)
Best objective -3.000000000000e+01, best bound -3.000000000000e+01, gap 0.0000%
mnist - Training average accuracy over 1 experiments with 30 training points using max_correct: 1.0
mnist - testing average accuracy over 1 experiments with 30 training points using max_correct: 0.0916
no warm start
Gurobi Optimizer version 11.0.2 build v11.0.2rc0 (linux64 - "Ubuntu 22.04.4 LTS")

CPU model: Intel(R) Core(TM) i7-8700 CPU @ 3.20GHz, instruction set [SSE2|AVX|AVX2]
Thread count: 6 physical cores, 12 logical processors, using up to 12 threads

Optimize a model with 6300 rows, 29530 columns and 161420 nonzeros
Model fingerprint: 0x32a04541
Model has 600 quadratic constraints
Variable types: 28270 continuous, 1260 integer (1260 binary)
Coefficient statistics:
  Matrix range     [4e-03, 3e+04]
  QMatrix range    [1e+00, 1e+00]
  QLMatrix range   [1e+00, 2e+00]
  Objective range  [1e+00, 1e+00]
  Bounds range     [1e+00, 1e+00]
  RHS range        [8e+02, 3e+04]
  QRHS range       [1e+00, 1e+00]
Presolve removed 1560 rows and 12480 columns
Presolve time: 0.40s
Presolved: 43740 rows, 26950 columns, 264784 nonzeros
Presolved model has 300 quadratic constraint(s)
Presolved model has 9600 bilinear constraint(s)

Solving non-convex MIQCP

Variable types: 25690 continuous, 1260 integer (1260 binary)
Found heuristic solution: objective 300.0000000
Deterministic concurrent LP optimizer: primal and dual simplex
Showing primal log only...

Concurrent spin time: 0.00s

Solved with dual simplex

Use crossover to convert LP symmetric solution to basic solution...

Root relaxation: objective 2.700000e+02, 14490 iterations, 0.64 seconds (0.39 work units)

    Nodes    |    Current Node    |     Objective Bounds      |     Work
 Expl Unexpl |  Obj  Depth IntInf | Incumbent    BestBd   Gap | It/Node Time

     0     0  270.00000    0  566  300.00000  270.00000  10.0%     -   20s
H    0     0                     299.0000000  270.00000  9.70%     -  105s
H    0     0                     299.0000000  270.00000  9.70%     -  105s
H    0     0                     298.6881917  270.00000  9.60%     -  105s
H    0     0                     298.0000000  270.00000  9.40%     -  105s
H    0     0                     297.1546408  270.00000  9.14%     -  105s
H    0     0                     297.0000001  270.00000  9.09%     -  105s
H    0     0                     297.0000000  270.00000  9.09%     -  105s
H    0     0                     296.0000000  270.00000  8.78%     -  105s
H    0     0                     295.0000000  270.00000  8.47%     -  105s
H    0     0                     294.0000004  270.00000  8.16%     -  105s
H    0     0                     293.3691807  270.00000  7.97%     -  105s
     0     0  270.00000    0 3848  293.36918  270.00000  7.97%     -  105s
H    0     0                     279.8811493  270.00000  3.53%     -  107s
     0     0  270.00000    0 3848  279.88115  270.00000  3.53%     -  107s
     0     0  270.00000    0 3630  279.88115  270.00000  3.53%     -  143s
H    0     0                     279.1648439  270.00000  3.28%     -  144s
     0     0  270.00000    0 3640  279.16484  270.00000  3.28%     -  145s
     0     0  270.00000    0 3403  279.16484  270.00000  3.28%     -  174s
     0     0  270.00000    0 3398  279.16484  270.00000  3.28%     -  176s
H    0     0                     273.9498463  270.00000  1.44%     -  184s
H    0     0                     272.2781535  270.00000  0.84%     -  184s
     0     0  270.00000    0 3207  272.27815  270.00000  0.84%     -  184s
H    0     0                     271.8521027  270.00000  0.68%     -  185s
H    0     0                     271.2781535  270.00000  0.47%     -  185s
     0     0  270.00000    0 3207  271.27815  270.00000  0.47%     -  185s
     0     0  270.00000    0 3207  271.27815  270.00000  0.47%     -  186s
     0     0  270.00000    0 3207  271.27815  270.00000  0.47%     -  187s
     0     0  270.00000    0 3207  271.27815  270.00000  0.47%     -  187s
H    0     0                     270.8521024  270.00000  0.31%     -  188s
H    0     0                     270.8521023  270.00000  0.31%     -  189s
     0     0  270.00000    0 3207  270.85210  270.00000  0.31%     -  189s
     0     0  270.00000    0 3207  270.85210  270.00000  0.31%     -  190s
H    0     0                     270.4260512  270.00000  0.16%     -  191s
     0     0  270.00000    0 3207  270.42605  270.00000  0.16%     -  191s
     0     0  270.00000    0 3207  270.42605  270.00000  0.16%     -  192s
     0     0  270.00000    0 3207  270.42605  270.00000  0.16%     -  192s
     0     2  270.00000    0 3207  270.42605  270.00000  0.16%     -  391s
     3     8  270.00000    2 3091  270.42605  270.00000  0.16%  7333  425s
    19    26  270.00000    5 2902  270.42605  270.00000  0.16%  1385  431s
    31    38  270.00000    7 2939  270.42605  270.00000  0.16%   946  435s
H   35    38                     270.0000000  270.00000  0.00%   850  436s

Cutting planes:
  MIR: 50
  Flow cover: 31
  RLT: 29

Explored 37 nodes (152689 simplex iterations) in 436.39 seconds (369.50 work units)
Thread count was 12 (of 12 available processors)

Solution count 10: 270 270.426 270.852 ... 279.881

Optimal solution found (tolerance 1.00e-04)
Best objective 2.700000000000e+02, best bound 2.700000000000e+02, gap 0.0000%
mnist - Training average accuracy over 1 experiments with 30 training points using hinge: 1.0
mnist - testing average accuracy over 1 experiments with 30 training points using hinge: 0.2638
no warm start
Gurobi Optimizer version 11.0.2 build v11.0.2rc0 (linux64 - "Ubuntu 22.04.4 LTS")

CPU model: Intel(R) Core(TM) i7-8700 CPU @ 3.20GHz, instruction set [SSE2|AVX|AVX2]
Thread count: 6 physical cores, 12 logical processors, using up to 12 threads

Optimize a model with 6600 rows, 29530 columns and 162320 nonzeros
Model fingerprint: 0x6ff9e1bd
Model has 300 quadratic constraints
Variable types: 27970 continuous, 1560 integer (1560 binary)
Coefficient statistics:
  Matrix range     [4e-03, 3e+04]
  QMatrix range    [1e+00, 1e+00]
  QLMatrix range   [1e+00, 1e+00]
  Objective range  [1e+00, 1e+00]
  Bounds range     [1e+00, 1e+00]
  RHS range        [3e+02, 3e+04]
Presolve removed 1830 rows and 12750 columns
Presolve time: 0.36s
Presolved: 43470 rows, 26380 columns, 263944 nonzeros
Presolved model has 9600 bilinear constraint(s)

Solving non-convex MIQCP

Variable types: 25090 continuous, 1290 integer (1290 binary)
Found heuristic solution: objective 300.0000000
Deterministic concurrent LP optimizer: primal and dual simplex
Showing primal log only...

Concurrent spin time: 0.14s (can be avoided by choosing Method=3)

Solved with dual simplex

Use crossover to convert LP symmetric solution to basic solution...

Root relaxation: objective 2.700000e+02, 15411 iterations, 0.99 seconds (0.58 work units)

    Nodes    |    Current Node    |     Objective Bounds      |     Work
 Expl Unexpl |  Obj  Depth IntInf | Incumbent    BestBd   Gap | It/Node Time

     0     0  270.00000    0 1797  300.00000  270.00000  10.0%     -   24s
     0     0  270.00000    0 5602  300.00000  270.00000  10.0%     -  101s
     0     0  270.00000    0 5578  300.00000  270.00000  10.0%     -  104s
     0     0  270.00000    0 5530  300.00000  270.00000  10.0%     -  139s
     0     0  270.00000    0 5507  300.00000  270.00000  10.0%     -  146s
     0     0  270.00000    0 5452  300.00000  270.00000  10.0%     -  182s
     0     0  270.00000    0 5412  300.00000  270.00000  10.0%     -  184s
     0     0  270.00000    0 5120  300.00000  270.00000  10.0%     -  217s
     0     0  270.00000    0 5074  300.00000  270.00000  10.0%     -  221s
     0     0  270.00000    0 5254  300.00000  270.00000  10.0%     -  253s
     0     0  270.00000    0 5250  300.00000  270.00000  10.0%     -  255s
     0     0  270.00000    0 5208  300.00000  270.00000  10.0%     -  289s
     0     0  270.00000    0 5203  300.00000  270.00000  10.0%     -  290s
     0     0  270.00000    0 5187  300.00000  270.00000  10.0%     -  319s
     0     0  270.00000    0 5180  300.00000  270.00000  10.0%     -  322s
     0     0  270.00000    0 5166  300.00000  270.00000  10.0%     -  349s
     0     0  270.00000    0 5155  300.00000  270.00000  10.0%     -  350s
     0     0  270.00000    0 5141  300.00000  270.00000  10.0%     -  377s
     0     0  270.00000    0 5126  300.00000  270.00000  10.0%     -  379s
     0     0  270.00000    0 5058  300.00000  270.00000  10.0%     -  404s
     0     0  270.00000    0 5058  300.00000  270.00000  10.0%     -  424s
H    0     0                     297.0000000  270.00000  9.09%     -  475s
     0     2  270.00000    0 5058  297.00000  270.00000  9.09%     -  514s
     1     4  270.00000    1 5056  297.00000  270.00000  9.09%  7639  519s
     3     8  270.00000    2 5055  297.00000  270.00000  9.09%  3258  527s
     7    14  270.00000    3 5054  297.00000  270.00000  9.09%  2127  532s
    13    20  270.00000    4 4883  297.00000  270.00000  9.09%  2031  559s
    19    26  270.00000    5 4885  297.00000  270.00000  9.09%  2994  562s
    31    38  270.00000    7 4885  297.00000  270.00000  9.09%  1965  566s
    37    52  270.00000    8 4884  297.00000  270.00000  9.09%  1732  572s
    51    82  270.00000   11 4886  297.00000  270.00000  9.09%  1352  584s
    81   120  270.00000   16 4804  297.00000  270.00000  9.09%  1000  620s
   119   287  270.00000   21 4816  297.00000  270.00000  9.09%   944  669s
   286  1044  270.00000   46 4865  297.00000  270.00000  9.09%   514  772s
  1043  1460  270.00000  168 4903  297.00000  270.00000  9.09%   263 1059s
  1459  1952  270.00000  219 4877  297.00000  270.00000  9.09%   272 1202s
  1951  2129  270.00000  349 4647  297.00000  270.00000  9.09%   262 1353s
  2128  2488  270.00000  366 4651  297.00000  270.00000  9.09%   368 1527s
  2487  2977  270.00000  445 4430  297.00000  270.00000  9.09%   473 1776s
  2976  3094  270.00000  562 4327  297.00000  270.00000  9.09%   585 1943s
  3093  3363  270.00000  578 4327  297.00000  270.00000  9.09%   622 2234s
  3362  3542  270.00000  625 4329  297.00000  270.00000  9.09%   740 2515s
  3541  3649  270.00000  627 4326  297.00000  270.00000  9.09%   862 2748s
  3648  3810  270.00000  639 4245  297.00000  270.00000  9.09%   966 2987s
  3809  3964  270.00000  674 4152  297.00000  270.00000  9.09%  1061 3249s
  3963  4087  270.00000  675 4173  297.00000  270.00000  9.09%  1155 3584s
  4086  4133  270.00000  680 4163  297.00000  270.00000  9.09%  1252 3852s
  4132  4219  270.00000  682 4093  297.00000  270.00000  9.09%  1357 4121s
  4218  4278  270.00000  691 3971  297.00000  270.00000  9.09%  1453 4500s
  4277  4344  270.00000  707 3959  297.00000  270.00000  9.09%  1561 4909s
  4343  4459  270.00000  708 3959  297.00000  270.00000  9.09%  1654 5315s
  4458  4502  270.00000  710 3959  297.00000  270.00000  9.09%  1759 5726s
  4501  4557  270.00000  712 3950  297.00000  270.00000  9.09%  1867 6284s
  4556  4669  270.00000  715 3951  297.00000  270.00000  9.09%  1976 6859s
  4668  4731  270.00000  722 3951  297.00000  270.00000  9.09%  2082 7284s
  4730  4832  270.00000  730 3935  297.00000  270.00000  9.09%  2207 7712s
  4831  5225  270.00000  731 3935  297.00000  270.00000  9.09%  2332 8129s
H 5039   720                     270.0000000  270.00000  0.00%  2311 8129s

Cutting planes:
  Learned: 30
  MIR: 94
  Flow cover: 22
  RLT: 102

Explored 5224 nodes (11977091 simplex iterations) in 8129.27 seconds (7788.25 work units)
Thread count was 12 (of 12 available processors)

Solution count 3: 270 297 300 

Optimal solution found (tolerance 1.00e-04)
Best objective 2.700000000000e+02, best bound 2.700000000000e+02, gap 0.0000%
mnist - Training average accuracy over 1 experiments with 30 training points using sat_margin: 1.0
mnist - testing average accuracy over 1 experiments with 30 training points using sat_margin: 0.2548
